12
0 24 173 62 182 4 33 106 194 126 32 93 
143 0 87 65 101 188 161 14 175 71 171 36 
34 112 0 97 68 86 151 141 95 96 25 20 
126 177 95 0 103 172 67 79 194 52 85 19 
65 120 153 1 0 61 127 11 158 171 116 177 
28 44 159 165 110 0 87 166 88 178 75 26 
28 30 129 24 121 103 0 124 197 138 62 196 
126 65 61 3 117 31 127 0 172 12 148 154 
121 191 125 189 164 141 52 63 0 101 114 159 
179 166 8 78 1 59 40 104 161 0 125 78 
109 114 88 2 51 61 29 194 185 6 0 112 
105 36 157 73 151 24 86 157 17 27 158 0 
